(set-logic QF_S)
(declare-fun T_80 () Bool)
(declare-fun T_81 () Bool)
(declare-fun T_SELECT_12 () Bool)
(declare-fun I0_192 () Int)
(declare-fun I0_196 () Int)
(declare-fun I1_192 () Int)
(declare-fun I1_196 () Int)
(declare-fun I2_192 () Int)
(declare-fun I2_196 () Int)
(declare-fun PCTEMP_LHS_50 () Int)
(declare-fun T_85 () Int)
(declare-fun NEW_DGNode_1102 () String)
(declare-fun NEW_DGNode_1103 () String)
(declare-fun PCTEMP_LHS_54 () String)
(assert (= PCTEMP_LHS_54 NEW_DGNode_1103))
(assert (= NEW_DGNode_1103 NEW_DGNode_1102))
(assert (not (str.in.re NEW_DGNode_1103 (str.to.re "+"))))
(assert (not (str.in.re NEW_DGNode_1102 (str.to.re "%"))))
(assert (= T_SELECT_12 (not (= PCTEMP_LHS_50 (- 1)))))
(assert T_81)
(assert (= T_81 (not T_80)))
(assert (= T_80 (= PCTEMP_LHS_50 (- 1))))
(assert (= I0_192 (- PCTEMP_LHS_50 0)))
(assert (>= PCTEMP_LHS_50 0))
(assert (= I2_192 I1_192))
(assert (<= PCTEMP_LHS_50 I1_192))
(assert (= T_85 (+ PCTEMP_LHS_50 1)))
(assert (>= T_85 0))
(assert (>= I2_196 T_85))
(assert (= I2_196 I1_196))
(assert (<= I2_196 I1_196))
(assert (= I0_196 (- I2_196 T_85)))
(assert (= I0_196 (str.len PCTEMP_LHS_54))) ; len 0
(check-sat)
